GLPSOL--GLPK LP/MIP Solver 5.0
Parameter(s) specified in the command line:
 --lp ../modeles/3_144.lp --log 3_144.log
Reading problem data from '../modeles/3_144.lp'...
445 rows, 870 columns, 3033 non-zeros
432 integer variables, all of which are binary
1324 lines were read
GLPK Integer Optimizer 5.0
445 rows, 870 columns, 3033 non-zeros
432 integer variables, all of which are binary
Preprocessing...
426 constraint coefficient(s) were reduced
445 rows, 867 columns, 3030 non-zeros
432 integer variables, all of which are binary
Scaling...
 A: min|aij| =  7.716e-04  max|aij| =  4.000e+00  ratio =  5.184e+03
GM: min|aij| =  1.179e-01  max|aij| =  8.485e+00  ratio =  7.200e+01
EQ: min|aij| =  1.389e-02  max|aij| =  1.000e+00  ratio =  7.200e+01
2N: min|aij| =  1.235e-02  max|aij| =  1.714e+00  ratio =  1.388e+02
Constructing initial basis...
Size of triangular part is 445
Solving LP relaxation...
GLPK Simplex Optimizer 5.0
445 rows, 867 columns, 3030 non-zeros
      0: obj =   6.000000000e+00 inf =   1.450e+01 (7)
     56: obj =   3.827077101e-01 inf =   0.000e+00 (0)
*   170: obj =  -1.731707317e+00 inf =   0.000e+00 (0)
OPTIMAL LP SOLUTION FOUND
Integer optimization begins...
Long-step dual simplex will be used
+   170: mip =     not found yet >=              -inf        (1; 0)
+   251: >>>>>  -1.731707317e+00 >=  -1.731707317e+00   0.0% (81; 0)
+   251: mip =  -1.731707317e+00 >=     tree is empty   0.0% (0; 161)
INTEGER OPTIMAL SOLUTION FOUND
Time used:   0.1 secs
Memory used: 1.3 Mb (1381557 bytes)
